8524
6, 4, 43, 33, 10, 9, 8, 41, 19, 45, 3, 17, 18, 31, 22, 1, 32, 49, 36, 37, 24, 48, 46, 25, 12, 51, 11, 28, 26, 27, 13, 52, 14, 47, 29, 16, 50, 20, 30, 2, 7, 42, 21, 23, 44, 34, 35, 39, 40, 38, 5, 15
